p cnf 9 27
-8 8 0
8 0
2 -6 4 0
2 -5 0
-8 9 6 0
1 -4 0
9 -4 -3 7 0
-1 0
2 0
-7 2 3 -4 0
-8 -1 0
1 2 3 9 0
-7 0
9 -1 0
8 9 0
1 -5 0
8 -8 6 0
9 -4 0
9 -3 -2 0
6 7 0
-1 5 6 7 0
1 2 7 0
9 -6 -1 7 0
8 -7 -6 6 0
1 -6 3 0
-7 3 -1 0
1 -5 0
